(set-logic QF_S)
(declare-fun var0 () String)
(assert (RegexIn var0 (RegexConcat (RegexStar (RegexUnion (Str2Reg "00") (Str2Reg "111"))) (RegexConcat (RegexPlus (RegexStar (Str2Reg "22"))) (RegexConcat (RegexStar (RegexStar (Str2Reg "333"))) (RegexConcat (RegexStar (RegexStar (Str2Reg "4"))) (RegexConcat (RegexUnion (RegexUnion (Str2Reg "5") (Str2Reg "66")) (RegexUnion (Str2Reg "7") (Str2Reg "88"))) (RegexConcat (RegexUnion (RegexUnion (Str2Reg "9") (Str2Reg "aa")) (RegexUnion (Str2Reg "bbb") (Str2Reg "ccc"))) (RegexConcat (RegexStar (RegexPlus (Str2Reg "dd"))) (RegexConcat (RegexPlus (RegexUnion (Str2Reg "eee") (Str2Reg "f"))) (RegexConcat (RegexUnion (RegexPlus (Str2Reg "ggg")) (RegexPlus (Str2Reg "hhh"))) (RegexStar (RegexStar (Str2Reg "ii"))))))))))))))
(assert (<= 451 (Length var0)))
(check-sat)